\ENCODING=ISO-8859-1
\Problem name: IloCplex

Minimize
 obj: Z + x294
Subject To
 Constraint1_1:      x_1_1_1  = 1
 Constraint1_2:      x_2_1_1 + x_2_2_1 + x_2_2_2  = 1
 Constraint1_3:      x_3_1_1 + x_3_2_1 + x_3_2_2 + x_3_3_1 + x_3_3_2 + x_3_3_3
                      = 1
 Constraint1_4:      x_4_4_4  = 1
 Constraint1_5:      x_5_4_4 + x_5_5_4 + x_5_5_5  = 1
 Constraint1_6:      x_6_4_4 + x_6_5_4 + x_6_5_5 + x_6_6_4 + x_6_6_5 + x_6_6_6
                      = 1
 Constraint1_7:      x_7_7_7  = 1
 Constraint1_8:      x_8_7_7 + x_8_8_7 + x_8_8_8  = 1
 Constraint1_9:      x_9_7_7 + x_9_8_7 + x_9_8_8 + x_9_9_7 + x_9_9_8 + x_9_9_9
                      = 1
 Constraint1_10:     x_10_7_7 + x_10_8_7 + x_10_8_8 + x_10_9_7 + x_10_9_8
                     + x_10_9_9 + x_10_10_7 + x_10_10_8 + x_10_10_9
                     + x_10_10_10  = 1
 Constraint2_1:      - 115 x_1_1_1 + 59 x_2_2_1 + 54 x_3_3_1 <= 0
 Constraint2_2:      - 121 x_2_2_2 + 54 x_3_3_2 <= 0
 Constraint2_3:      - 126 x_3_3_3 <= 0
 Constraint2_4:      - 14 x_4_4_4 + 130 x_5_5_4 + 47 x_6_6_4 <= 0
 Constraint2_5:      - 50 x_5_5_5 + 47 x_6_6_5 <= 0
 Constraint2_6:      - 133 x_6_6_6 <= 0
 Constraint2_7:      - 55 x_7_7_7 + 125 x_8_8_7 + 115 x_9_9_7 + 71 x_10_10_7
                     <= 0
 Constraint2_8:      - 55 x_8_8_8 + 115 x_9_9_8 + 71 x_10_10_8 <= 0
 Constraint2_9:      - 65 x_9_9_9 + 71 x_10_10_9 <= 0
 Constraint2_10:     - 109 x_10_10_10 <= 0
 Constraint3_2_1_1:  - x_1_1_1 + x_2_1_1 <= 0
 Constraint3_3_1_1:  - x_1_1_1 + x_3_1_1 <= 0
 Constraint3_3_2_1:  - x_2_2_1 + x_3_2_1 <= 0
 Constraint3_3_2_2:  - x_2_2_2 + x_3_2_2 <= 0
 Constraint3_5_4_4:  - x_4_4_4 + x_5_4_4 <= 0
 Constraint3_6_4_4:  - x_4_4_4 + x_6_4_4 <= 0
 Constraint3_6_5_4:  - x_5_5_4 + x_6_5_4 <= 0
 Constraint3_6_5_5:  - x_5_5_5 + x_6_5_5 <= 0
 Constraint3_8_7_7:  - x_7_7_7 + x_8_7_7 <= 0
 Constraint3_9_7_7:  - x_7_7_7 + x_9_7_7 <= 0
 Constraint3_9_8_7:  - x_8_8_7 + x_9_8_7 <= 0
 Constraint3_9_8_8:  - x_8_8_8 + x_9_8_8 <= 0
 Constraint3_10_7_7: - x_7_7_7 + x_10_7_7 <= 0
 Constraint3_10_8_7: - x_8_8_7 + x_10_8_7 <= 0
 Constraint3_10_8_8: - x_8_8_8 + x_10_8_8 <= 0
 Constraint3_10_9_7: - x_9_9_7 + x_10_9_7 <= 0
 Constraint3_10_9_8: - x_9_9_8 + x_10_9_8 <= 0
 Constraint3_10_9_9: - x_9_9_9 + x_10_9_9 <= 0
 Constraint4_1:      x_1_1_1 + x_2_2_1 + x_3_3_1 <= 1
 Constraint4_2:      x_2_2_2 + x_3_3_2 <= 1
 Constraint4_3:      x_3_3_3 <= 1
 Constraint4_4:      x_4_4_4 + x_5_5_4 + x_6_6_4 <= 1
 Constraint4_5:      x_5_5_5 + x_6_6_5 <= 1
 Constraint4_6:      x_6_6_6 <= 1
 Constraint4_7:      x_7_7_7 + x_8_8_7 + x_9_9_7 + x_10_10_7 <= 1
 Constraint4_8:      x_8_8_8 + x_9_9_8 + x_10_10_8 <= 1
 Constraint4_9:      x_9_9_9 + x_10_10_9 <= 1
 Constraint4_10:     x_10_10_10 <= 1
 Constraint5_1_1:    - 91 x_1_1_1 - 165 x_2_1_1 - 181 x_3_1_1 + B_1 >= 0
 Constraint5_2_1:    - 165 x_2_2_1 - 181 x_3_2_1 + B_1 >= 0
 Constraint5_3_1:    - 181 x_3_3_1 + B_1 >= 0
 Constraint5_4_1:    B_1 >= 0
 Constraint5_5_1:    B_1 >= 0
 Constraint5_6_1:    B_1 >= 0
 Constraint5_7_1:    B_1 >= 0
 Constraint5_8_1:    B_1 >= 0
 Constraint5_9_1:    B_1 >= 0
 Constraint5_10_1:   B_1 >= 0
 Constraint5_1_2:    B_2 >= 0
 Constraint5_2_2:    - 165 x_2_2_2 - 181 x_3_2_2 + B_2 >= 0
 Constraint5_3_2:    - 181 x_3_3_2 + B_2 >= 0
 Constraint5_4_2:    B_2 >= 0
 Constraint5_5_2:    B_2 >= 0
 Constraint5_6_2:    B_2 >= 0
 Constraint5_7_2:    B_2 >= 0
 Constraint5_8_2:    B_2 >= 0
 Constraint5_9_2:    B_2 >= 0
 Constraint5_10_2:   B_2 >= 0
 Constraint5_1_3:    B_3 >= 0
 Constraint5_2_3:    B_3 >= 0
 Constraint5_3_3:    - 181 x_3_3_3 + B_3 >= 0
 Constraint5_4_3:    B_3 >= 0
 Constraint5_5_3:    B_3 >= 0
 Constraint5_6_3:    B_3 >= 0
 Constraint5_7_3:    B_3 >= 0
 Constraint5_8_3:    B_3 >= 0
 Constraint5_9_3:    B_3 >= 0
 Constraint5_10_3:   B_3 >= 0
 Constraint5_1_4:    B_4 >= 0
 Constraint5_2_4:    B_4 >= 0
 Constraint5_3_4:    B_4 >= 0
 Constraint5_4_4:    - 49 x_4_4_4 - 131 x_5_4_4 - 102 x_6_4_4 + B_4 >= 0
 Constraint5_5_4:    - 131 x_5_5_4 - 102 x_6_5_4 + B_4 >= 0
 Constraint5_6_4:    - 102 x_6_6_4 + B_4 >= 0
 Constraint5_7_4:    B_4 >= 0
 Constraint5_8_4:    B_4 >= 0
 Constraint5_9_4:    B_4 >= 0
 Constraint5_10_4:   B_4 >= 0
 Constraint5_1_5:    B_5 >= 0
 Constraint5_2_5:    B_5 >= 0
 Constraint5_3_5:    B_5 >= 0
 Constraint5_4_5:    B_5 >= 0
 Constraint5_5_5:    - 131 x_5_5_5 - 102 x_6_5_5 + B_5 >= 0
 Constraint5_6_5:    - 102 x_6_6_5 + B_5 >= 0
 Constraint5_7_5:    B_5 >= 0
 Constraint5_8_5:    B_5 >= 0
 Constraint5_9_5:    B_5 >= 0
 Constraint5_10_5:   B_5 >= 0
 Constraint5_1_6:    B_6 >= 0
 Constraint5_2_6:    B_6 >= 0
 Constraint5_3_6:    B_6 >= 0
 Constraint5_4_6:    B_6 >= 0
 Constraint5_5_6:    B_6 >= 0
 Constraint5_6_6:    - 102 x_6_6_6 + B_6 >= 0
 Constraint5_7_6:    B_6 >= 0
 Constraint5_8_6:    B_6 >= 0
 Constraint5_9_6:    B_6 >= 0
 Constraint5_10_6:   B_6 >= 0
 Constraint5_1_7:    B_7 >= 0
 Constraint5_2_7:    B_7 >= 0
 Constraint5_3_7:    B_7 >= 0
 Constraint5_4_7:    B_7 >= 0
 Constraint5_5_7:    B_7 >= 0
 Constraint5_6_7:    B_7 >= 0
 Constraint5_7_7:    - 126 x_7_7_7 - 102 x_8_7_7 - 185 x_9_7_7 - 185 x_10_7_7
                     + B_7 >= 0
 Constraint5_8_7:    - 102 x_8_8_7 - 185 x_9_8_7 - 185 x_10_8_7 + B_7 >= 0
 Constraint5_9_7:    - 185 x_9_9_7 - 185 x_10_9_7 + B_7 >= 0
 Constraint5_10_7:   - 185 x_10_10_7 + B_7 >= 0
 Constraint5_1_8:    B_8 >= 0
 Constraint5_2_8:    B_8 >= 0
 Constraint5_3_8:    B_8 >= 0
 Constraint5_4_8:    B_8 >= 0
 Constraint5_5_8:    B_8 >= 0
 Constraint5_6_8:    B_8 >= 0
 Constraint5_7_8:    B_8 >= 0
 Constraint5_8_8:    - 102 x_8_8_8 - 185 x_9_8_8 - 185 x_10_8_8 + B_8 >= 0
 Constraint5_9_8:    - 185 x_9_9_8 - 185 x_10_9_8 + B_8 >= 0
 Constraint5_10_8:   - 185 x_10_10_8 + B_8 >= 0
 Constraint5_1_9:    B_9 >= 0
 Constraint5_2_9:    B_9 >= 0
 Constraint5_3_9:    B_9 >= 0
 Constraint5_4_9:    B_9 >= 0
 Constraint5_5_9:    B_9 >= 0
 Constraint5_6_9:    B_9 >= 0
 Constraint5_7_9:    B_9 >= 0
 Constraint5_8_9:    B_9 >= 0
 Constraint5_9_9:    - 185 x_9_9_9 - 185 x_10_9_9 + B_9 >= 0
 Constraint5_10_9:   - 185 x_10_10_9 + B_9 >= 0
 Constraint5_1_10:   B_10 >= 0
 Constraint5_2_10:   B_10 >= 0
 Constraint5_3_10:   B_10 >= 0
 Constraint5_4_10:   B_10 >= 0
 Constraint5_5_10:   B_10 >= 0
 Constraint5_6_10:   B_10 >= 0
 Constraint5_7_10:   B_10 >= 0
 Constraint5_8_10:   B_10 >= 0
 Constraint5_9_10:   B_10 >= 0
 Constraint5_10_10:  - 185 x_10_10_10 + B_10 >= 0
 c149:               S_0_1 + S_0_2 + S_0_3 + S_0_4 + S_0_5 + S_0_6 + S_0_7
                     + S_0_8 + S_0_9 + S_0_10  = 2
 Constraint6_1:      - S_0_1 + S_1_2 + S_1_3 + S_1_4 + S_1_5 + S_1_6 + S_1_7
                     + S_1_8 + S_1_9 + S_1_10 + S_1_11 - S_2_1 - S_3_1 - S_4_1
                     - S_5_1 - S_6_1 - S_7_1 - S_8_1 - S_9_1 - S_10_1  = 0
 Constraint6_2:      - S_0_2 - S_1_2 + S_2_1 + S_2_3 + S_2_4 + S_2_5 + S_2_6
                     + S_2_7 + S_2_8 + S_2_9 + S_2_10 + S_2_11 - S_3_2 - S_4_2
                     - S_5_2 - S_6_2 - S_7_2 - S_8_2 - S_9_2 - S_10_2  = 0
 Constraint6_3:      - S_0_3 - S_1_3 - S_2_3 + S_3_1 + S_3_2 + S_3_4 + S_3_5
                     + S_3_6 + S_3_7 + S_3_8 + S_3_9 + S_3_10 + S_3_11 - S_4_3
                     - S_5_3 - S_6_3 - S_7_3 - S_8_3 - S_9_3 - S_10_3  = 0
 Constraint6_4:      - S_0_4 - S_1_4 - S_2_4 - S_3_4 + S_4_1 + S_4_2 + S_4_3
                     + S_4_5 + S_4_6 + S_4_7 + S_4_8 + S_4_9 + S_4_10 + S_4_11
                     - S_5_4 - S_6_4 - S_7_4 - S_8_4 - S_9_4 - S_10_4  = 0
 Constraint6_5:      - S_0_5 - S_1_5 - S_2_5 - S_3_5 - S_4_5 + S_5_1 + S_5_2
                     + S_5_3 + S_5_4 + S_5_6 + S_5_7 + S_5_8 + S_5_9 + S_5_10
                     + S_5_11 - S_6_5 - S_7_5 - S_8_5 - S_9_5 - S_10_5  = 0
 Constraint6_6:      - S_0_6 - S_1_6 - S_2_6 - S_3_6 - S_4_6 - S_5_6 + S_6_1
                     + S_6_2 + S_6_3 + S_6_4 + S_6_5 + S_6_7 + S_6_8 + S_6_9
                     + S_6_10 + S_6_11 - S_7_6 - S_8_6 - S_9_6 - S_10_6  = 0
 Constraint6_7:      - S_0_7 - S_1_7 - S_2_7 - S_3_7 - S_4_7 - S_5_7 - S_6_7
                     + S_7_1 + S_7_2 + S_7_3 + S_7_4 + S_7_5 + S_7_6 + S_7_8
                     + S_7_9 + S_7_10 + S_7_11 - S_8_7 - S_9_7 - S_10_7  = 0
 Constraint6_8:      - S_0_8 - S_1_8 - S_2_8 - S_3_8 - S_4_8 - S_5_8 - S_6_8
                     - S_7_8 + S_8_1 + S_8_2 + S_8_3 + S_8_4 + S_8_5 + S_8_6
                     + S_8_7 + S_8_9 + S_8_10 + S_8_11 - S_9_8 - S_10_8  = 0
 Constraint6_9:      - S_0_9 - S_1_9 - S_2_9 - S_3_9 - S_4_9 - S_5_9 - S_6_9
                     - S_7_9 - S_8_9 + S_9_1 + S_9_2 + S_9_3 + S_9_4 + S_9_5
                     + S_9_6 + S_9_7 + S_9_8 + S_9_10 + S_9_11 - S_10_9  = 0
 Constraint6_10:     - S_0_10 - S_1_10 - S_2_10 - S_3_10 - S_4_10 - S_5_10
                     - S_6_10 - S_7_10 - S_8_10 - S_9_10 + S_10_1 + S_10_2
                     + S_10_3 + S_10_4 + S_10_5 + S_10_6 + S_10_7 + S_10_8
                     + S_10_9 + S_10_11  = 0
 Constraint6_11:     - S_0_11 - S_1_11 - S_2_11 - S_3_11 - S_4_11 - S_5_11
                     - S_6_11 - S_7_11 - S_8_11 - S_9_11 - S_10_11 + S_11_1
                     + S_11_2 + S_11_3 + S_11_4 + S_11_5 + S_11_6 + S_11_7
                     + S_11_8 + S_11_9 + S_11_10  = -2
 Constraint7_1:      - x_1_1_1 + S_0_1 + S_2_1 + S_3_1 + S_4_1 + S_5_1 + S_6_1
                     + S_7_1 + S_8_1 + S_9_1 + S_10_1  = 0
 Constraint7_2:      - x_2_2_2 + S_0_2 + S_1_2 + S_3_2 + S_4_2 + S_5_2 + S_6_2
                     + S_7_2 + S_8_2 + S_9_2 + S_10_2  = 0
 Constraint7_3:      - x_3_3_3 + S_0_3 + S_1_3 + S_2_3 + S_4_3 + S_5_3 + S_6_3
                     + S_7_3 + S_8_3 + S_9_3 + S_10_3  = 0
 Constraint7_4:      - x_4_4_4 + S_0_4 + S_1_4 + S_2_4 + S_3_4 + S_5_4 + S_6_4
                     + S_7_4 + S_8_4 + S_9_4 + S_10_4  = 0
 Constraint7_5:      - x_5_5_5 + S_0_5 + S_1_5 + S_2_5 + S_3_5 + S_4_5 + S_6_5
                     + S_7_5 + S_8_5 + S_9_5 + S_10_5  = 0
 Constraint7_6:      - x_6_6_6 + S_0_6 + S_1_6 + S_2_6 + S_3_6 + S_4_6 + S_5_6
                     + S_7_6 + S_8_6 + S_9_6 + S_10_6  = 0
 Constraint7_7:      - x_7_7_7 + S_0_7 + S_1_7 + S_2_7 + S_3_7 + S_4_7 + S_5_7
                     + S_6_7 + S_8_7 + S_9_7 + S_10_7  = 0
 Constraint7_8:      - x_8_8_8 + S_0_8 + S_1_8 + S_2_8 + S_3_8 + S_4_8 + S_5_8
                     + S_6_8 + S_7_8 + S_9_8 + S_10_8  = 0
 Constraint7_9:      - x_9_9_9 + S_0_9 + S_1_9 + S_2_9 + S_3_9 + S_4_9 + S_5_9
                     + S_6_9 + S_7_9 + S_8_9 + S_10_9  = 0
 Constraint7_10:     - x_10_10_10 + S_0_10 + S_1_10 + S_2_10 + S_3_10 + S_4_10
                     + S_5_10 + S_6_10 + S_7_10 + S_8_10 + S_9_10  = 0
 Constraint8_1:      - A_1 + 29 S_4_1 + 29 S_5_1 + 29 S_6_1 + 13 S_7_1
                     + 13 S_8_1 + 13 S_9_1 + 13 S_10_1 <= 0
 Constraint8_2:      - A_2 + 29 S_4_2 + 29 S_5_2 + 29 S_6_2 + 13 S_7_2
                     + 13 S_8_2 + 13 S_9_2 + 13 S_10_2 <= 0
 Constraint8_3:      - A_3 + 29 S_4_3 + 29 S_5_3 + 29 S_6_3 + 13 S_7_3
                     + 13 S_8_3 + 13 S_9_3 + 13 S_10_3 <= 0
 Constraint8_4:      - A_4 + 29 S_1_4 + 29 S_2_4 + 29 S_3_4 + 19 S_7_4
                     + 19 S_8_4 + 19 S_9_4 + 19 S_10_4 <= 0
 Constraint8_5:      - A_5 + 29 S_1_5 + 29 S_2_5 + 29 S_3_5 + 19 S_7_5
                     + 19 S_8_5 + 19 S_9_5 + 19 S_10_5 <= 0
 Constraint8_6:      - A_6 + 29 S_1_6 + 29 S_2_6 + 29 S_3_6 + 19 S_7_6
                     + 19 S_8_6 + 19 S_9_6 + 19 S_10_6 <= 0
 Constraint8_7:      - A_7 + 13 S_1_7 + 13 S_2_7 + 13 S_3_7 + 19 S_4_7
                     + 19 S_5_7 + 19 S_6_7 <= 0
 Constraint8_8:      - A_8 + 13 S_1_8 + 13 S_2_8 + 13 S_3_8 + 19 S_4_8
                     + 19 S_5_8 + 19 S_6_8 <= 0
 Constraint8_9:      - A_9 + 13 S_1_9 + 13 S_2_9 + 13 S_3_9 + 19 S_4_9
                     + 19 S_5_9 + 19 S_6_9 <= 0
 Constraint8_10:     - A_10 + 13 S_1_10 + 13 S_2_10 + 13 S_3_10 + 19 S_4_10
                     + 19 S_5_10 + 19 S_6_10 <= 0
 Constraint9_0:      F_0_1 + F_0_2 + F_0_3 + F_0_4 + F_0_5 + F_0_6 + F_0_7
                     + F_0_8 + F_0_9 + F_0_10 + F_0_11  = 0
 Constraint9_1:      - B_1 - A_1 + F_1_2 + F_1_3 + F_1_4 + F_1_5 + F_1_6
                     + F_1_7 + F_1_8 + F_1_9 + F_1_10 + F_1_11 - F_2_1 - F_3_1
                     - F_4_1 - F_5_1 - F_6_1 - F_7_1 - F_8_1 - F_9_1 - F_10_1
                      = 0
 Constraint9_2:      - B_2 - A_2 - F_1_2 + F_2_1 + F_2_3 + F_2_4 + F_2_5
                     + F_2_6 + F_2_7 + F_2_8 + F_2_9 + F_2_10 + F_2_11 - F_3_2
                     - F_4_2 - F_5_2 - F_6_2 - F_7_2 - F_8_2 - F_9_2 - F_10_2
                      = 0
 Constraint9_3:      - B_3 - A_3 - F_1_3 - F_2_3 + F_3_1 + F_3_2 + F_3_4
                     + F_3_5 + F_3_6 + F_3_7 + F_3_8 + F_3_9 + F_3_10 + F_3_11
                     - F_4_3 - F_5_3 - F_6_3 - F_7_3 - F_8_3 - F_9_3 - F_10_3
                      = 0
 Constraint9_4:      - B_4 - A_4 - F_1_4 - F_2_4 - F_3_4 + F_4_1 + F_4_2
                     + F_4_3 + F_4_5 + F_4_6 + F_4_7 + F_4_8 + F_4_9 + F_4_10
                     + F_4_11 - F_5_4 - F_6_4 - F_7_4 - F_8_4 - F_9_4 - F_10_4
                      = 0
 Constraint9_5:      - B_5 - A_5 - F_1_5 - F_2_5 - F_3_5 - F_4_5 + F_5_1
                     + F_5_2 + F_5_3 + F_5_4 + F_5_6 + F_5_7 + F_5_8 + F_5_9
                     + F_5_10 + F_5_11 - F_6_5 - F_7_5 - F_8_5 - F_9_5 - F_10_5
                      = 0
 Constraint9_6:      - B_6 - A_6 - F_1_6 - F_2_6 - F_3_6 - F_4_6 - F_5_6
                     + F_6_1 + F_6_2 + F_6_3 + F_6_4 + F_6_5 + F_6_7 + F_6_8
                     + F_6_9 + F_6_10 + F_6_11 - F_7_6 - F_8_6 - F_9_6 - F_10_6
                      = 0
 Constraint9_7:      - B_7 - A_7 - F_1_7 - F_2_7 - F_3_7 - F_4_7 - F_5_7
                     - F_6_7 + F_7_1 + F_7_2 + F_7_3 + F_7_4 + F_7_5 + F_7_6
                     + F_7_8 + F_7_9 + F_7_10 + F_7_11 - F_8_7 - F_9_7 - F_10_7
                      = 0
 Constraint9_8:      - B_8 - A_8 - F_1_8 - F_2_8 - F_3_8 - F_4_8 - F_5_8
                     - F_6_8 - F_7_8 + F_8_1 + F_8_2 + F_8_3 + F_8_4 + F_8_5
                     + F_8_6 + F_8_7 + F_8_9 + F_8_10 + F_8_11 - F_9_8 - F_10_8
                      = 0
 Constraint9_9:      - B_9 - A_9 - F_1_9 - F_2_9 - F_3_9 - F_4_9 - F_5_9
                     - F_6_9 - F_7_9 - F_8_9 + F_9_1 + F_9_2 + F_9_3 + F_9_4
                     + F_9_5 + F_9_6 + F_9_7 + F_9_8 + F_9_10 + F_9_11 - F_10_9
                      = 0
 Constraint9_10:     - B_10 - A_10 - F_1_10 - F_2_10 - F_3_10 - F_4_10 - F_5_10
                     - F_6_10 - F_7_10 - F_8_10 - F_9_10 + F_10_1 + F_10_2
                     + F_10_3 + F_10_4 + F_10_5 + F_10_6 + F_10_7 + F_10_8
                     + F_10_9 + F_10_11  = 0
 Constraint9.3_0:    - F_0_11 + Z >= 0
 Constraint9.3_1:    - F_1_11 + Z >= 0
 Constraint9.3_2:    - F_2_11 + Z >= 0
 Constraint9.3_3:    - F_3_11 + Z >= 0
 Constraint9.3_4:    - F_4_11 + Z >= 0
 Constraint9.3_5:    - F_5_11 + Z >= 0
 Constraint9.3_6:    - F_6_11 + Z >= 0
 Constraint9.3_7:    - F_7_11 + Z >= 0
 Constraint9.3_8:    - F_8_11 + Z >= 0
 Constraint9.3_9:    - F_9_11 + Z >= 0
 Constraint9.3_10:   - F_10_11 + Z >= 0
 Constraint10_0_1:   - 1317 S_0_1 + F_0_1 <= 0
 Constraint10_0_2:   - 1317 S_0_2 + F_0_2 <= 0
 Constraint10_0_3:   - 1317 S_0_3 + F_0_3 <= 0
 Constraint10_0_4:   - 1317 S_0_4 + F_0_4 <= 0
 Constraint10_0_5:   - 1317 S_0_5 + F_0_5 <= 0
 Constraint10_0_6:   - 1317 S_0_6 + F_0_6 <= 0
 Constraint10_0_7:   - 1317 S_0_7 + F_0_7 <= 0
 Constraint10_0_8:   - 1317 S_0_8 + F_0_8 <= 0
 Constraint10_0_9:   - 1317 S_0_9 + F_0_9 <= 0
 Constraint10_0_10:  - 1317 S_0_10 + F_0_10 <= 0
 Constraint10_0_11:  - 1317 S_0_11 + F_0_11 <= 0
 Constraint10_1_2:   - 1317 S_1_2 + F_1_2 <= 0
 Constraint10_1_3:   - 1317 S_1_3 + F_1_3 <= 0
 Constraint10_1_4:   - 1317 S_1_4 + F_1_4 <= 0
 Constraint10_1_5:   - 1317 S_1_5 + F_1_5 <= 0
 Constraint10_1_6:   - 1317 S_1_6 + F_1_6 <= 0
 Constraint10_1_7:   - 1317 S_1_7 + F_1_7 <= 0
 Constraint10_1_8:   - 1317 S_1_8 + F_1_8 <= 0
 Constraint10_1_9:   - 1317 S_1_9 + F_1_9 <= 0
 Constraint10_1_10:  - 1317 S_1_10 + F_1_10 <= 0
 Constraint10_1_11:  - 1317 S_1_11 + F_1_11 <= 0
 Constraint10_2_1:   - 1317 S_2_1 + F_2_1 <= 0
 Constraint10_2_3:   - 1317 S_2_3 + F_2_3 <= 0
 Constraint10_2_4:   - 1317 S_2_4 + F_2_4 <= 0
 Constraint10_2_5:   - 1317 S_2_5 + F_2_5 <= 0
 Constraint10_2_6:   - 1317 S_2_6 + F_2_6 <= 0
 Constraint10_2_7:   - 1317 S_2_7 + F_2_7 <= 0
 Constraint10_2_8:   - 1317 S_2_8 + F_2_8 <= 0
 Constraint10_2_9:   - 1317 S_2_9 + F_2_9 <= 0
 Constraint10_2_10:  - 1317 S_2_10 + F_2_10 <= 0
 Constraint10_2_11:  - 1317 S_2_11 + F_2_11 <= 0
 Constraint10_3_1:   - 1317 S_3_1 + F_3_1 <= 0
 Constraint10_3_2:   - 1317 S_3_2 + F_3_2 <= 0
 Constraint10_3_4:   - 1317 S_3_4 + F_3_4 <= 0
 Constraint10_3_5:   - 1317 S_3_5 + F_3_5 <= 0
 Constraint10_3_6:   - 1317 S_3_6 + F_3_6 <= 0
 Constraint10_3_7:   - 1317 S_3_7 + F_3_7 <= 0
 Constraint10_3_8:   - 1317 S_3_8 + F_3_8 <= 0
 Constraint10_3_9:   - 1317 S_3_9 + F_3_9 <= 0
 Constraint10_3_10:  - 1317 S_3_10 + F_3_10 <= 0
 Constraint10_3_11:  - 1317 S_3_11 + F_3_11 <= 0
 Constraint10_4_1:   - 1317 S_4_1 + F_4_1 <= 0
 Constraint10_4_2:   - 1317 S_4_2 + F_4_2 <= 0
 Constraint10_4_3:   - 1317 S_4_3 + F_4_3 <= 0
 Constraint10_4_5:   - 1317 S_4_5 + F_4_5 <= 0
 Constraint10_4_6:   - 1317 S_4_6 + F_4_6 <= 0
 Constraint10_4_7:   - 1317 S_4_7 + F_4_7 <= 0
 Constraint10_4_8:   - 1317 S_4_8 + F_4_8 <= 0
 Constraint10_4_9:   - 1317 S_4_9 + F_4_9 <= 0
 Constraint10_4_10:  - 1317 S_4_10 + F_4_10 <= 0
 Constraint10_4_11:  - 1317 S_4_11 + F_4_11 <= 0
 Constraint10_5_1:   - 1317 S_5_1 + F_5_1 <= 0
 Constraint10_5_2:   - 1317 S_5_2 + F_5_2 <= 0
 Constraint10_5_3:   - 1317 S_5_3 + F_5_3 <= 0
 Constraint10_5_4:   - 1317 S_5_4 + F_5_4 <= 0
 Constraint10_5_6:   - 1317 S_5_6 + F_5_6 <= 0
 Constraint10_5_7:   - 1317 S_5_7 + F_5_7 <= 0
 Constraint10_5_8:   - 1317 S_5_8 + F_5_8 <= 0
 Constraint10_5_9:   - 1317 S_5_9 + F_5_9 <= 0
 Constraint10_5_10:  - 1317 S_5_10 + F_5_10 <= 0
 Constraint10_5_11:  - 1317 S_5_11 + F_5_11 <= 0
 Constraint10_6_1:   - 1317 S_6_1 + F_6_1 <= 0
 Constraint10_6_2:   - 1317 S_6_2 + F_6_2 <= 0
 Constraint10_6_3:   - 1317 S_6_3 + F_6_3 <= 0
 Constraint10_6_4:   - 1317 S_6_4 + F_6_4 <= 0
 Constraint10_6_5:   - 1317 S_6_5 + F_6_5 <= 0
 Constraint10_6_7:   - 1317 S_6_7 + F_6_7 <= 0
 Constraint10_6_8:   - 1317 S_6_8 + F_6_8 <= 0
 Constraint10_6_9:   - 1317 S_6_9 + F_6_9 <= 0
 Constraint10_6_10:  - 1317 S_6_10 + F_6_10 <= 0
 Constraint10_6_11:  - 1317 S_6_11 + F_6_11 <= 0
 Constraint10_7_1:   - 1317 S_7_1 + F_7_1 <= 0
 Constraint10_7_2:   - 1317 S_7_2 + F_7_2 <= 0
 Constraint10_7_3:   - 1317 S_7_3 + F_7_3 <= 0
 Constraint10_7_4:   - 1317 S_7_4 + F_7_4 <= 0
 Constraint10_7_5:   - 1317 S_7_5 + F_7_5 <= 0
 Constraint10_7_6:   - 1317 S_7_6 + F_7_6 <= 0
 Constraint10_7_8:   - 1317 S_7_8 + F_7_8 <= 0
 Constraint10_7_9:   - 1317 S_7_9 + F_7_9 <= 0
 Constraint10_7_10:  - 1317 S_7_10 + F_7_10 <= 0
 Constraint10_7_11:  - 1317 S_7_11 + F_7_11 <= 0
 Constraint10_8_1:   - 1317 S_8_1 + F_8_1 <= 0
 Constraint10_8_2:   - 1317 S_8_2 + F_8_2 <= 0
 Constraint10_8_3:   - 1317 S_8_3 + F_8_3 <= 0
 Constraint10_8_4:   - 1317 S_8_4 + F_8_4 <= 0
 Constraint10_8_5:   - 1317 S_8_5 + F_8_5 <= 0
 Constraint10_8_6:   - 1317 S_8_6 + F_8_6 <= 0
 Constraint10_8_7:   - 1317 S_8_7 + F_8_7 <= 0
 Constraint10_8_9:   - 1317 S_8_9 + F_8_9 <= 0
 Constraint10_8_10:  - 1317 S_8_10 + F_8_10 <= 0
 Constraint10_8_11:  - 1317 S_8_11 + F_8_11 <= 0
 Constraint10_9_1:   - 1317 S_9_1 + F_9_1 <= 0
 Constraint10_9_2:   - 1317 S_9_2 + F_9_2 <= 0
 Constraint10_9_3:   - 1317 S_9_3 + F_9_3 <= 0
 Constraint10_9_4:   - 1317 S_9_4 + F_9_4 <= 0
 Constraint10_9_5:   - 1317 S_9_5 + F_9_5 <= 0
 Constraint10_9_6:   - 1317 S_9_6 + F_9_6 <= 0
 Constraint10_9_7:   - 1317 S_9_7 + F_9_7 <= 0
 Constraint10_9_8:   - 1317 S_9_8 + F_9_8 <= 0
 Constraint10_9_10:  - 1317 S_9_10 + F_9_10 <= 0
 Constraint10_9_11:  - 1317 S_9_11 + F_9_11 <= 0
 Constraint10_10_1:  - 1317 S_10_1 + F_10_1 <= 0
 Constraint10_10_2:  - 1317 S_10_2 + F_10_2 <= 0
 Constraint10_10_3:  - 1317 S_10_3 + F_10_3 <= 0
 Constraint10_10_4:  - 1317 S_10_4 + F_10_4 <= 0
 Constraint10_10_5:  - 1317 S_10_5 + F_10_5 <= 0
 Constraint10_10_6:  - 1317 S_10_6 + F_10_6 <= 0
 Constraint10_10_7:  - 1317 S_10_7 + F_10_7 <= 0
 Constraint10_10_8:  - 1317 S_10_8 + F_10_8 <= 0
 Constraint10_10_9:  - 1317 S_10_9 + F_10_9 <= 0
 Constraint10_10_11: - 1317 S_10_11 + F_10_11 <= 0
Bounds
 0 <= x_1_1_1 <= 1
 0 <= x_2_1_1 <= 1
 0 <= x_2_2_1 <= 1
 0 <= x_2_2_2 <= 1
 0 <= x_3_1_1 <= 1
 0 <= x_3_2_1 <= 1
 0 <= x_3_2_2 <= 1
 0 <= x_3_3_1 <= 1
 0 <= x_3_3_2 <= 1
 0 <= x_3_3_3 <= 1
 0 <= x_4_4_4 <= 1
 0 <= x_5_4_4 <= 1
 0 <= x_5_5_4 <= 1
 0 <= x_5_5_5 <= 1
 0 <= x_6_4_4 <= 1
 0 <= x_6_5_4 <= 1
 0 <= x_6_5_5 <= 1
 0 <= x_6_6_4 <= 1
 0 <= x_6_6_5 <= 1
 0 <= x_6_6_6 <= 1
 0 <= x_7_7_7 <= 1
 0 <= x_8_7_7 <= 1
 0 <= x_8_8_7 <= 1
 0 <= x_8_8_8 <= 1
 0 <= x_9_7_7 <= 1
 0 <= x_9_8_7 <= 1
 0 <= x_9_8_8 <= 1
 0 <= x_9_9_7 <= 1
 0 <= x_9_9_8 <= 1
 0 <= x_9_9_9 <= 1
 0 <= x_10_7_7 <= 1
 0 <= x_10_8_7 <= 1
 0 <= x_10_8_8 <= 1
 0 <= x_10_9_7 <= 1
 0 <= x_10_9_8 <= 1
 0 <= x_10_9_9 <= 1
 0 <= x_10_10_7 <= 1
 0 <= x_10_10_8 <= 1
 0 <= x_10_10_9 <= 1
 0 <= x_10_10_10 <= 1
 0 <= B_1 <= 999999
 0 <= A_1 <= 999999
 0 <= B_2 <= 999999
 0 <= A_2 <= 999999
 0 <= B_3 <= 999999
 0 <= A_3 <= 999999
 0 <= B_4 <= 999999
 0 <= A_4 <= 999999
 0 <= B_5 <= 999999
 0 <= A_5 <= 999999
 0 <= B_6 <= 999999
 0 <= A_6 <= 999999
 0 <= B_7 <= 999999
 0 <= A_7 <= 999999
 0 <= B_8 <= 999999
 0 <= A_8 <= 999999
 0 <= B_9 <= 999999
 0 <= A_9 <= 999999
 0 <= B_10 <= 999999
 0 <= A_10 <= 999999
 0 <= S_0_1 <= 1
 0 <= S_0_2 <= 1
 0 <= S_0_3 <= 1
 0 <= S_0_4 <= 1
 0 <= S_0_5 <= 1
 0 <= S_0_6 <= 1
 0 <= S_0_7 <= 1
 0 <= S_0_8 <= 1
 0 <= S_0_9 <= 1
 0 <= S_0_10 <= 1
 0 <= S_0_11 <= 1
 0 <= S_1_2 <= 1
 0 <= S_1_3 <= 1
 0 <= S_1_4 <= 1
 0 <= S_1_5 <= 1
 0 <= S_1_6 <= 1
 0 <= S_1_7 <= 1
 0 <= S_1_8 <= 1
 0 <= S_1_9 <= 1
 0 <= S_1_10 <= 1
 0 <= S_1_11 <= 1
 0 <= S_2_1 <= 1
 0 <= S_2_3 <= 1
 0 <= S_2_4 <= 1
 0 <= S_2_5 <= 1
 0 <= S_2_6 <= 1
 0 <= S_2_7 <= 1
 0 <= S_2_8 <= 1
 0 <= S_2_9 <= 1
 0 <= S_2_10 <= 1
 0 <= S_2_11 <= 1
 0 <= S_3_1 <= 1
 0 <= S_3_2 <= 1
 0 <= S_3_4 <= 1
 0 <= S_3_5 <= 1
 0 <= S_3_6 <= 1
 0 <= S_3_7 <= 1
 0 <= S_3_8 <= 1
 0 <= S_3_9 <= 1
 0 <= S_3_10 <= 1
 0 <= S_3_11 <= 1
 0 <= S_4_1 <= 1
 0 <= S_4_2 <= 1
 0 <= S_4_3 <= 1
 0 <= S_4_5 <= 1
 0 <= S_4_6 <= 1
 0 <= S_4_7 <= 1
 0 <= S_4_8 <= 1
 0 <= S_4_9 <= 1
 0 <= S_4_10 <= 1
 0 <= S_4_11 <= 1
 0 <= S_5_1 <= 1
 0 <= S_5_2 <= 1
 0 <= S_5_3 <= 1
 0 <= S_5_4 <= 1
 0 <= S_5_6 <= 1
 0 <= S_5_7 <= 1
 0 <= S_5_8 <= 1
 0 <= S_5_9 <= 1
 0 <= S_5_10 <= 1
 0 <= S_5_11 <= 1
 0 <= S_6_1 <= 1
 0 <= S_6_2 <= 1
 0 <= S_6_3 <= 1
 0 <= S_6_4 <= 1
 0 <= S_6_5 <= 1
 0 <= S_6_7 <= 1
 0 <= S_6_8 <= 1
 0 <= S_6_9 <= 1
 0 <= S_6_10 <= 1
 0 <= S_6_11 <= 1
 0 <= S_7_1 <= 1
 0 <= S_7_2 <= 1
 0 <= S_7_3 <= 1
 0 <= S_7_4 <= 1
 0 <= S_7_5 <= 1
 0 <= S_7_6 <= 1
 0 <= S_7_8 <= 1
 0 <= S_7_9 <= 1
 0 <= S_7_10 <= 1
 0 <= S_7_11 <= 1
 0 <= S_8_1 <= 1
 0 <= S_8_2 <= 1
 0 <= S_8_3 <= 1
 0 <= S_8_4 <= 1
 0 <= S_8_5 <= 1
 0 <= S_8_6 <= 1
 0 <= S_8_7 <= 1
 0 <= S_8_9 <= 1
 0 <= S_8_10 <= 1
 0 <= S_8_11 <= 1
 0 <= S_9_1 <= 1
 0 <= S_9_2 <= 1
 0 <= S_9_3 <= 1
 0 <= S_9_4 <= 1
 0 <= S_9_5 <= 1
 0 <= S_9_6 <= 1
 0 <= S_9_7 <= 1
 0 <= S_9_8 <= 1
 0 <= S_9_10 <= 1
 0 <= S_9_11 <= 1
 0 <= S_10_1 <= 1
 0 <= S_10_2 <= 1
 0 <= S_10_3 <= 1
 0 <= S_10_4 <= 1
 0 <= S_10_5 <= 1
 0 <= S_10_6 <= 1
 0 <= S_10_7 <= 1
 0 <= S_10_8 <= 1
 0 <= S_10_9 <= 1
 0 <= S_10_11 <= 1
 0 <= S_11_1 <= 1
 0 <= S_11_2 <= 1
 0 <= S_11_3 <= 1
 0 <= S_11_4 <= 1
 0 <= S_11_5 <= 1
 0 <= S_11_6 <= 1
 0 <= S_11_7 <= 1
 0 <= S_11_8 <= 1
 0 <= S_11_9 <= 1
 0 <= S_11_10 <= 1
 0 <= F_0_1 <= 10000000
 0 <= F_0_2 <= 10000000
 0 <= F_0_3 <= 10000000
 0 <= F_0_4 <= 10000000
 0 <= F_0_5 <= 10000000
 0 <= F_0_6 <= 10000000
 0 <= F_0_7 <= 10000000
 0 <= F_0_8 <= 10000000
 0 <= F_0_9 <= 10000000
 0 <= F_0_10 <= 10000000
 0 <= F_0_11 <= 10000000
 0 <= F_1_2 <= 10000000
 0 <= F_1_3 <= 10000000
 0 <= F_1_4 <= 10000000
 0 <= F_1_5 <= 10000000
 0 <= F_1_6 <= 10000000
 0 <= F_1_7 <= 10000000
 0 <= F_1_8 <= 10000000
 0 <= F_1_9 <= 10000000
 0 <= F_1_10 <= 10000000
 0 <= F_1_11 <= 10000000
 0 <= F_2_1 <= 10000000
 0 <= F_2_3 <= 10000000
 0 <= F_2_4 <= 10000000
 0 <= F_2_5 <= 10000000
 0 <= F_2_6 <= 10000000
 0 <= F_2_7 <= 10000000
 0 <= F_2_8 <= 10000000
 0 <= F_2_9 <= 10000000
 0 <= F_2_10 <= 10000000
 0 <= F_2_11 <= 10000000
 0 <= F_3_1 <= 10000000
 0 <= F_3_2 <= 10000000
 0 <= F_3_4 <= 10000000
 0 <= F_3_5 <= 10000000
 0 <= F_3_6 <= 10000000
 0 <= F_3_7 <= 10000000
 0 <= F_3_8 <= 10000000
 0 <= F_3_9 <= 10000000
 0 <= F_3_10 <= 10000000
 0 <= F_3_11 <= 10000000
 0 <= F_4_1 <= 10000000
 0 <= F_4_2 <= 10000000
 0 <= F_4_3 <= 10000000
 0 <= F_4_5 <= 10000000
 0 <= F_4_6 <= 10000000
 0 <= F_4_7 <= 10000000
 0 <= F_4_8 <= 10000000
 0 <= F_4_9 <= 10000000
 0 <= F_4_10 <= 10000000
 0 <= F_4_11 <= 10000000
 0 <= F_5_1 <= 10000000
 0 <= F_5_2 <= 10000000
 0 <= F_5_3 <= 10000000
 0 <= F_5_4 <= 10000000
 0 <= F_5_6 <= 10000000
 0 <= F_5_7 <= 10000000
 0 <= F_5_8 <= 10000000
 0 <= F_5_9 <= 10000000
 0 <= F_5_10 <= 10000000
 0 <= F_5_11 <= 10000000
 0 <= F_6_1 <= 10000000
 0 <= F_6_2 <= 10000000
 0 <= F_6_3 <= 10000000
 0 <= F_6_4 <= 10000000
 0 <= F_6_5 <= 10000000
 0 <= F_6_7 <= 10000000
 0 <= F_6_8 <= 10000000
 0 <= F_6_9 <= 10000000
 0 <= F_6_10 <= 10000000
 0 <= F_6_11 <= 10000000
 0 <= F_7_1 <= 10000000
 0 <= F_7_2 <= 10000000
 0 <= F_7_3 <= 10000000
 0 <= F_7_4 <= 10000000
 0 <= F_7_5 <= 10000000
 0 <= F_7_6 <= 10000000
 0 <= F_7_8 <= 10000000
 0 <= F_7_9 <= 10000000
 0 <= F_7_10 <= 10000000
 0 <= F_7_11 <= 10000000
 0 <= F_8_1 <= 10000000
 0 <= F_8_2 <= 10000000
 0 <= F_8_3 <= 10000000
 0 <= F_8_4 <= 10000000
 0 <= F_8_5 <= 10000000
 0 <= F_8_6 <= 10000000
 0 <= F_8_7 <= 10000000
 0 <= F_8_9 <= 10000000
 0 <= F_8_10 <= 10000000
 0 <= F_8_11 <= 10000000
 0 <= F_9_1 <= 10000000
 0 <= F_9_2 <= 10000000
 0 <= F_9_3 <= 10000000
 0 <= F_9_4 <= 10000000
 0 <= F_9_5 <= 10000000
 0 <= F_9_6 <= 10000000
 0 <= F_9_7 <= 10000000
 0 <= F_9_8 <= 10000000
 0 <= F_9_10 <= 10000000
 0 <= F_9_11 <= 10000000
 0 <= F_10_1 <= 10000000
 0 <= F_10_2 <= 10000000
 0 <= F_10_3 <= 10000000
 0 <= F_10_4 <= 10000000
 0 <= F_10_5 <= 10000000
 0 <= F_10_6 <= 10000000
 0 <= F_10_7 <= 10000000
 0 <= F_10_8 <= 10000000
 0 <= F_10_9 <= 10000000
 0 <= F_10_11 <= 10000000
 0 <= Z <= 9999999
      x294 = 0
Binaries
 x_1_1_1  x_2_1_1  x_2_2_1  x_2_2_2  x_3_1_1  x_3_2_1  x_3_2_2  x_3_3_1 
 x_3_3_2  x_3_3_3  x_4_4_4  x_5_4_4  x_5_5_4  x_5_5_5  x_6_4_4  x_6_5_4 
 x_6_5_5  x_6_6_4  x_6_6_5  x_6_6_6  x_7_7_7  x_8_7_7  x_8_8_7  x_8_8_8 
 x_9_7_7  x_9_8_7  x_9_8_8  x_9_9_7  x_9_9_8  x_9_9_9  x_10_7_7  x_10_8_7 
 x_10_8_8  x_10_9_7  x_10_9_8  x_10_9_9  x_10_10_7  x_10_10_8  x_10_10_9 
 x_10_10_10  S_0_1  S_0_2  S_0_3  S_0_4  S_0_5  S_0_6  S_0_7  S_0_8  S_0_9 
 S_0_10  S_0_11  S_1_2  S_1_3  S_1_4  S_1_5  S_1_6  S_1_7  S_1_8  S_1_9 
 S_1_10  S_1_11  S_2_1  S_2_3  S_2_4  S_2_5  S_2_6  S_2_7  S_2_8  S_2_9 
 S_2_10  S_2_11  S_3_1  S_3_2  S_3_4  S_3_5  S_3_6  S_3_7  S_3_8  S_3_9 
 S_3_10  S_3_11  S_4_1  S_4_2  S_4_3  S_4_5  S_4_6  S_4_7  S_4_8  S_4_9 
 S_4_10  S_4_11  S_5_1  S_5_2  S_5_3  S_5_4  S_5_6  S_5_7  S_5_8  S_5_9 
 S_5_10  S_5_11  S_6_1  S_6_2  S_6_3  S_6_4  S_6_5  S_6_7  S_6_8  S_6_9 
 S_6_10  S_6_11  S_7_1  S_7_2  S_7_3  S_7_4  S_7_5  S_7_6  S_7_8  S_7_9 
 S_7_10  S_7_11  S_8_1  S_8_2  S_8_3  S_8_4  S_8_5  S_8_6  S_8_7  S_8_9 
 S_8_10  S_8_11  S_9_1  S_9_2  S_9_3  S_9_4  S_9_5  S_9_6  S_9_7  S_9_8 
 S_9_10  S_9_11  S_10_1  S_10_2  S_10_3  S_10_4  S_10_5  S_10_6  S_10_7 
 S_10_8  S_10_9  S_10_11  S_11_1  S_11_2  S_11_3  S_11_4  S_11_5  S_11_6 
 S_11_7  S_11_8  S_11_9  S_11_10 
Generals
 Z 
End
